(declare-const __VERIFIER_assert__cond___7 Int)
(declare-const |phi___VERIFIER_assert__cond___18:393:528:561| Int)
(declare-const __VERIFIER_assert__cond___3 Int)
(declare-const |K:165:166:173:226:529:562| Int)
(declare-const |main____CPAchecker_TMP_0':148:169:176:229:532:565| Int)
(declare-const |main____CPAchecker_TMP_0___0':149:172:179:232:535:568| Int)
(declare-const |main____CPAchecker_TMP_3':363:390:545:578| Int)
(declare-const |havoc:28:64:341:391:546:579| Int)
(declare-const __VERIFIER_assert__cond___18 Int)
(declare-const havoc Int)
(declare-const |main____CPAchecker_TMP_6':369:386:541:574| Int)
(declare-const |main__t':147:385:540:573| Int)
(declare-const |havoc:9:63:145:225:233:536:569| Int)
(declare-const |__VERIFIER_assert__cond___4':366:387:542:575| Int)
(declare-const __VERIFIER_assert__cond___15 Int)
(declare-const |phi___VERIFIER_assert__cond___12:398:523:556| Int)
(declare-const |__tmp_383_0':146:170:177:230:533:566| Int)
(declare-const __VERIFIER_assert__cond___8 Int)
(declare-const __VERIFIER_assert__cond___11 Int)
(declare-const |phi_main____CPAchecker_TMP_0___0:397:524:557| Int)
(declare-const |phi___tmp_259_0:404:517:550| Int)
(declare-const |phi___VERIFIER_assert__cond___17:394:527:560| Int)
(declare-const |__VERIFIER_assert__cond___18':151:171:178:231:534:567| Int)
(declare-const |phi___VERIFIER_assert__cond___0:400:521:554| Int)
(declare-const |havoc:3:62:548| Int)
(declare-const |__VERIFIER_assert__cond___7':367:383:538:571| Int)
(declare-const |K:381:382:537:570| Int)
(declare-const __VERIFIER_assert__cond___4 Int)
(declare-const |__VERIFIER_assert__cond___17':150:168:175:228:531:564| Int)
(declare-const |phi___VERIFIER_assert__cond:401:520:553| Int)
(declare-const main____CPAchecker_TMP_4 Int)
(declare-const |phi_main__t:403:518:551| Int)
(declare-const |__VERIFIER_assert__cond___3':365:388:543:576| Int)
(declare-const __VERIFIER_assert__cond___0 Int)
(declare-const |phi___tmp_383_0:405:516:549| Int)
(declare-const __VERIFIER_assert__cond___12 Int)
(declare-const __VERIFIER_assert__cond Int)
(declare-const main____CPAchecker_TMP_3 Int)
(declare-const main____CPAchecker_TMP_6 Int)
(declare-const |havoc:29:65:392:547:580| Int)
(declare-const __tmp_383_0 Int)
(declare-const |phi___VERIFIER_assert__cond___16:395:526:559| Int)
(declare-const |main____CPAchecker_TMP_4':364:389:544:577| Int)
(declare-const main____CPAchecker_TMP_0___0 Int)
(declare-const __VERIFIER_assert__cond___17 Int)
(declare-const |phi___VERIFIER_assert__cond___15:396:525:558| Int)
(declare-const |__VERIFIER_assert__cond___8':368:384:539:572| Int)
(declare-const |main__t':147:167:174:227:530:563| Int)
(declare-const __VERIFIER_assert__cond___16 Int)
(declare-const |phi_main____CPAchecker_TMP_0:402:519:552| Int)
(declare-const |phi___VERIFIER_assert__cond___11:399:522:555| Int)
(assert (and (<= (+ (- havoc) 1) 0) (not (= (+ (- havoc) 1) 0))
               (or (and (not (= |havoc:3:62:548| 0))
                          (not (= (ite (<= (+ (- havoc) 1) 0) 1 0) 0))
                          (= (+ (- |phi___tmp_383_0:405:516:549|) __tmp_383_0) 0)
                          (= (+ (- |phi___tmp_259_0:404:517:550|)
                                  |havoc:3:62:548|) 0)
                          (= (- |phi_main__t:403:518:551|) 0)
                          (= (+ (- |phi_main____CPAchecker_TMP_0:402:519:552|)
                                  |havoc:3:62:548|) 0)
                          (= (+ (- |phi___VERIFIER_assert__cond:401:520:553|)
                                  1) 0)
                          (= (+ (- |phi___VERIFIER_assert__cond___0:400:521:554|)
                                  (ite (<= (+ (- havoc) 1) 0) 1 0)) 0)
                          (= (+ (- |phi___VERIFIER_assert__cond___11:399:522:555|)
                                  __VERIFIER_assert__cond___11) 0)
                          (= (+ (- |phi___VERIFIER_assert__cond___12:398:523:556|)
                                  __VERIFIER_assert__cond___12) 0)
                          (= (+ (- |phi_main____CPAchecker_TMP_0___0:397:524:557|)
                                  main____CPAchecker_TMP_0___0) 0)
                          (= (+ (- |phi___VERIFIER_assert__cond___15:396:525:558|)
                                  __VERIFIER_assert__cond___15) 0)
                          (= (+ (- |phi___VERIFIER_assert__cond___16:395:526:559|)
                                  __VERIFIER_assert__cond___16) 0)
                          (= (+ (- |phi___VERIFIER_assert__cond___17:394:527:560|)
                                  __VERIFIER_assert__cond___17) 0)
                          (= (+ (- |phi___VERIFIER_assert__cond___18:393:528:561|)
                                  __VERIFIER_assert__cond___18) 0))
                     (and (= |havoc:3:62:548| 0)
                            (not (= (ite (<= (+ (- havoc) 1) 0) 1 0) 0))
                            (or (not (<= (- |K:165:166:173:226:529:562|) 0))
                                  (= (+ |main__t':147:167:174:227:530:563|
                                          (- |K:165:166:173:226:529:562|)) 0))
                            (or (not (and (<= (- |K:165:166:173:226:529:562|) 0)
                                            (<= |K:165:166:173:226:529:562| 0)))
                                  (= (+ |__VERIFIER_assert__cond___17':150:168:175:228:531:564|
                                          (- __VERIFIER_assert__cond___17)) 0))
                            (or (not (<= (+ (- |K:165:166:173:226:529:562|) 1) 0))
                                  (= (+ |__VERIFIER_assert__cond___17':150:168:175:228:531:564|
                                          -1) 0))
                            (or (not (and (<= (- |K:165:166:173:226:529:562|) 0)
                                            (<= |K:165:166:173:226:529:562| 0)))
                                  (= (+ |main____CPAchecker_TMP_0':148:169:176:229:532:565|
                                          (- |havoc:3:62:548|)) 0))
                            (or (not (<= (+ (- |K:165:166:173:226:529:562|) 1) 0))
                                  (= |main____CPAchecker_TMP_0':148:169:176:229:532:565| 0))
                            (or (not (and (<= (- |K:165:166:173:226:529:562|) 0)
                                            (<= |K:165:166:173:226:529:562| 0)))
                                  (= (+ |__tmp_383_0':146:170:177:230:533:566|
                                          (- |havoc:3:62:548|)) 0))
                            (or (not (<= (+ (- |K:165:166:173:226:529:562|) 1) 0))
                                  (= |__tmp_383_0':146:170:177:230:533:566| 0))
                            (or (not (and (<= (- |K:165:166:173:226:529:562|) 0)
                                            (<= |K:165:166:173:226:529:562| 0)))
                                  (= (+ |__VERIFIER_assert__cond___18':151:171:178:231:534:567|
                                          (- __VERIFIER_assert__cond___18)) 0))
                            (or (not (<= (+ (- |K:165:166:173:226:529:562|) 1) 0))
                                  (= (+ |__VERIFIER_assert__cond___18':151:171:178:231:534:567|
                                          -1) 0))
                            (or (not (and (<= (- |K:165:166:173:226:529:562|) 0)
                                            (<= |K:165:166:173:226:529:562| 0)))
                                  (= (+ |main____CPAchecker_TMP_0___0':149:172:179:232:535:568|
                                          (- main____CPAchecker_TMP_0___0)) 0))
                            (or (not (<= (+ (- |K:165:166:173:226:529:562|) 1) 0))
                                  (= |main____CPAchecker_TMP_0___0':149:172:179:232:535:568| 0))
                            (or (and (= |K:165:166:173:226:529:562| 0)
                                       (= (+ (- |__VERIFIER_assert__cond___18':151:171:178:231:534:567|)
                                               __VERIFIER_assert__cond___18) 0)
                                       (= (+ (- |__VERIFIER_assert__cond___17':150:168:175:228:531:564|)
                                               __VERIFIER_assert__cond___17) 0)
                                       (= (+ (- |main____CPAchecker_TMP_0___0':149:172:179:232:535:568|)
                                               main____CPAchecker_TMP_0___0) 0)
                                       (= (+ (- |main____CPAchecker_TMP_0':148:169:176:229:532:565|)
                                               |havoc:3:62:548|) 0)
                                       (= (- |main__t':147:167:174:227:530:563|) 0)
                                       (= (+ (- |__tmp_383_0':146:170:177:230:533:566|)
                                               |havoc:3:62:548|) 0))
                                  (and (<= (+ (- |K:165:166:173:226:529:562|)
                                                1) 0) (= |havoc:3:62:548| 0)
                                         (= |havoc:3:62:548| 0)
                                         (<= (+ (- havoc) 3) 0)
                                         (= (+ |__VERIFIER_assert__cond___18':151:171:178:231:534:567|
                                                 -1) 0)
                                         (= (+ |__VERIFIER_assert__cond___17':150:168:175:228:531:564|
                                                 -1) 0)
                                         (= |main____CPAchecker_TMP_0':148:169:176:229:532:565| 0)
                                         (= |main____CPAchecker_TMP_0___0':149:172:179:232:535:568| 0)
                                         (= |__tmp_383_0':146:170:177:230:533:566| 0)
                                         (<= (+ |main__t':147:167:174:227:530:563|
                                                  (- havoc) 2) 0)
                                         (<= (+ (- |main__t':147:167:174:227:530:563|)
                                                  1) 0)))
                            (<= (- |K:165:166:173:226:529:562|) 0)
                            (= |__tmp_383_0':146:170:177:230:533:566| 0)
                            (= |main____CPAchecker_TMP_0':148:169:176:229:532:565| 0)
                            (<= (- |main__t':147:167:174:227:530:563|) 0)
                            (< (+ (- havoc) 1) 0)
                            (= |__tmp_383_0':146:170:177:230:533:566| 0)
                            (= |main____CPAchecker_TMP_0':148:169:176:229:532:565| 0)
                            (not (= (+ |main__t':147:167:174:227:530:563|
                                         (- havoc) 2) 0))
                            (not (= |havoc:9:63:145:225:233:536:569| 0))
                            (not (= (ite (<= (+ (- |main__t':147:167:174:227:530:563|)
                                                  -1) 0)
                                         1 0) 0))
                            (not (= (ite (<= (+ |main__t':147:167:174:227:530:563|
                                                  (- havoc) 2) 0)
                                         1 0) 0))
                            (= (+ |__tmp_383_0':146:170:177:230:533:566|
                                    (- |phi___tmp_383_0:405:516:549|)) 0)
                            (= (+ |havoc:9:63:145:225:233:536:569|
                                    (- |phi___tmp_259_0:404:517:550|)) 0)
                            (= (+ |main__t':147:167:174:227:530:563|
                                    (- |phi_main__t:403:518:551|) 1) 0)
                            (= (+ |__tmp_383_0':146:170:177:230:533:566|
                                    (- |phi_main____CPAchecker_TMP_0:402:519:552|)) 0)
                            (= (+ __VERIFIER_assert__cond
                                    (- |phi___VERIFIER_assert__cond:401:520:553|)) 0)
                            (= (+ __VERIFIER_assert__cond___0
                                    (- |phi___VERIFIER_assert__cond___0:400:521:554|)) 0)
                            (= (+ (- |phi___VERIFIER_assert__cond___11:399:522:555|)
                                    1) 0)
                            (= (+ (- |phi___VERIFIER_assert__cond___12:398:523:556|)
                                    (ite (<= (+ (- havoc) 1) 0) 1 0)) 0)
                            (= (+ |havoc:9:63:145:225:233:536:569|
                                    (- |phi_main____CPAchecker_TMP_0___0:397:524:557|)) 0)
                            (= (+ (ite (<= (+ (- |main__t':147:167:174:227:530:563|)
                                                -1) 0)
                                       1 0)
                                    (- |phi___VERIFIER_assert__cond___15:396:525:558|)) 0)
                            (= (+ (ite (<= (+ |main__t':147:167:174:227:530:563|
                                                (- havoc) 2) 0)
                                       1 0)
                                    (- |phi___VERIFIER_assert__cond___16:395:526:559|)) 0)
                            (= (+ |__VERIFIER_assert__cond___17':150:168:175:228:531:564|
                                    (- |phi___VERIFIER_assert__cond___17:394:527:560|)) 0)
                            (= (+ |__VERIFIER_assert__cond___18':151:171:178:231:534:567|
                                    (- |phi___VERIFIER_assert__cond___18:393:528:561|)) 0)))
               (or (not (and (<= (- |K:381:382:537:570|) 0)
                               (<= |K:381:382:537:570| 0)))
                     (= (+ (- __VERIFIER_assert__cond___7)
                             |__VERIFIER_assert__cond___7':367:383:538:571|) 0))
               (or (not (<= (+ (- |K:381:382:537:570|) 1) 0))
                     (= (+ |__VERIFIER_assert__cond___7':367:383:538:571| -1) 0))
               (or (not (and (<= (- |K:381:382:537:570|) 0)
                               (<= |K:381:382:537:570| 0)))
                     (= (+ (- __VERIFIER_assert__cond___8)
                             |__VERIFIER_assert__cond___8':368:384:539:572|) 0))
               (or (not (<= (+ (- |K:381:382:537:570|) 1) 0))
                     (= (+ |__VERIFIER_assert__cond___8':368:384:539:572| -1) 0))
               (or (not (<= (- |K:381:382:537:570|) 0))
                     (<= (+ |main__t':147:385:540:573|
                              (* -2 |K:381:382:537:570|)
                              (- |phi_main__t:403:518:551|) -1) 0))
               (or (not (<= (- |K:381:382:537:570|) 0))
                     (<= (+ |main__t':147:385:540:573|
                              (* 2 |K:381:382:537:570|)
                              (- |phi_main__t:403:518:551|)
                              (- (* |K:381:382:537:570| havoc)) -1) 0))
               (or (not (<= (- |K:381:382:537:570|) 0))
                     (<= (+ (- |main__t':147:385:540:573|)
                              |K:381:382:537:570| |phi_main__t:403:518:551| 1) 0))
               (or (and (= |K:381:382:537:570| 0)
                          (= (+ (- |main____CPAchecker_TMP_6':369:386:541:574|)
                                  main____CPAchecker_TMP_6) 0)
                          (= (+ __VERIFIER_assert__cond___8
                                  (- |__VERIFIER_assert__cond___8':368:384:539:572|)) 0)
                          (= (+ __VERIFIER_assert__cond___7
                                  (- |__VERIFIER_assert__cond___7':367:383:538:571|)) 0)
                          (= (+ (- |__VERIFIER_assert__cond___4':366:387:542:575|)
                                  __VERIFIER_assert__cond___4) 0)
                          (= (+ (- |__VERIFIER_assert__cond___3':365:388:543:576|)
                                  __VERIFIER_assert__cond___3) 0)
                          (= (+ (- |main____CPAchecker_TMP_4':364:389:544:577|)
                                  main____CPAchecker_TMP_4) 0)
                          (= (+ (- |main____CPAchecker_TMP_3':363:390:545:578|)
                                  main____CPAchecker_TMP_3) 0)
                          (= (+ (- |main__t':147:385:540:573|)
                                  |phi_main__t:403:518:551| 1) 0))
                     (and (<= (+ (- |K:381:382:537:570|) 1) 0)
                            (<= (+ |phi_main__t:403:518:551| (- havoc) 3) 0)
                            (<= (- |phi_main__t:403:518:551|) 0)
                            (= (+ |__VERIFIER_assert__cond___8':368:384:539:572|
                                    -1) 0)
                            (= (+ |__VERIFIER_assert__cond___7':367:383:538:571|
                                    -1) 0)
                            (<= (+ |main__t':147:385:540:573| (- havoc) 1) 0)
                            (<= (+ (- |main__t':147:385:540:573|) 2) 0)))
               (<= (- |K:381:382:537:570|) 0)
               (< (- |main__t':147:385:540:573|) 0) (< (+ (- havoc) 1) 0)
               (not (= (+ |main__t':147:385:540:573| (- havoc) 1) 0))
               (= |havoc:28:64:341:391:546:579| 0)
               (not (= |havoc:29:65:392:547:580| 0))
               (= (ite (<= (- |main__t':147:385:540:573|) 0) 1 0) 0)))
(check-sat)
